(set-logic QF_BV)

(declare-const __ESBMC_ptr_obj_start_0 (_ BitVec 64))

(declare-const __ESBMC_ptr_obj_end_0 (_ BitVec 64))

(declare-const __ESBMC_ptr_obj_start_1 (_ BitVec 64))

(declare-const __ESBMC_ptr_obj_end_1 (_ BitVec 64))

(declare-const |smt_conv::__ESBMC_ptr_addr_range_0..start0| (_ BitVec 64))

(declare-const |smt_conv::__ESBMC_ptr_addr_range_0..end0| (_ BitVec 64))

(declare-const |smt_conv::__ESBMC_ptr_addr_range_1..start0| (_ BitVec 64))

(declare-const |smt_conv::__ESBMC_ptr_addr_range_1..end0| (_ BitVec 64))

(declare-const |smt_conv::smt_conv::collate_array_vals::3..start0| (_ BitVec 64))

(declare-const |smt_conv::smt_conv::collate_array_vals::3..end0| (_ BitVec 64))

(declare-const |smt_conv::smt_conv::collate_array_vals::4..start0| (_ BitVec 64))

(declare-const |smt_conv::smt_conv::collate_array_vals::4..end0| (_ BitVec 64))

(declare-const |smt_conv::smt_conv::collate_array_vals::7..start0| (_ BitVec 64))

(declare-const |smt_conv::smt_conv::collate_array_vals::7..end0| (_ BitVec 64))

(declare-const |c:@F@main::$tmp::return_value$___VERIFIER_nondet_int$1?1!0&0#1| (_ BitVec 32))

(declare-const |nondet$symex::nondet90| (_ BitVec 32))

(declare-const |c:benchmark33_linear.i@904@F@main@x?1!0&0#1| (_ BitVec 32))

(declare-const |goto_symex::guard?0!0&0#1| (_ BitVec 1))

(declare-const |goto_symex::guard?0!0&0#2| (_ BitVec 1))

(declare-const |c:benchmark33_linear.i@904@F@main@x?1!0&0#2| (_ BitVec 32))

(declare-const |goto_symex::guard?0!0&0#3| (_ BitVec 1))

(declare-const |c:benchmark33_linear.i@904@F@main@x?1!0&0#3| (_ BitVec 32))

(declare-const |goto_symex::guard?0!0&0#4| (_ BitVec 1))

(declare-const |c:benchmark33_linear.i@904@F@main@x?1!0&0#4| (_ BitVec 32))

(declare-const |goto_symex::guard?0!0&0#5| (_ BitVec 1))

(declare-const |c:benchmark33_linear.i@904@F@main@x?1!0&0#5| (_ BitVec 32))

(declare-const |goto_symex::guard?0!0&0#6| (_ BitVec 1))

(declare-const |c:benchmark33_linear.i@904@F@main@x?1!0&0#6| (_ BitVec 32))

(declare-const |goto_symex::guard?0!0&0#7| (_ BitVec 1))

(declare-const |c:benchmark33_linear.i@904@F@main@x?1!0&0#7| (_ BitVec 32))

(declare-const |goto_symex::guard?0!0&0#8| (_ BitVec 1))

(declare-const |c:benchmark33_linear.i@904@F@main@x?1!0&0#8| (_ BitVec 32))

(declare-const |goto_symex::guard?0!0&0#9| (_ BitVec 1))

(declare-const |c:benchmark33_linear.i@904@F@main@x?1!0&0#9| (_ BitVec 32))

(declare-const |goto_symex::guard?0!0&0#10| (_ BitVec 1))

(declare-const |c:benchmark33_linear.i@904@F@main@x?1!0&0#10| (_ BitVec 32))

(declare-const |goto_symex::guard?0!0&0#11| (_ BitVec 1))

(declare-const |c:benchmark33_linear.i@904@F@main@x?1!0&0#11| (_ BitVec 32))

(declare-const |goto_symex::guard?0!0&0#12| (_ BitVec 1))

(declare-const |c:benchmark33_linear.i@904@F@main@x?1!0&0#12| (_ BitVec 32))

(declare-const |goto_symex::guard?0!0&0#13| (_ BitVec 1))

(declare-const |c:benchmark33_linear.i@904@F@main@x?1!0&0#13| (_ BitVec 32))

(declare-const |goto_symex::guard?0!0&0#14| (_ BitVec 1))

(declare-const |c:benchmark33_linear.i@904@F@main@x?1!0&0#14| (_ BitVec 32))

(declare-const |goto_symex::guard?0!0&0#15| (_ BitVec 1))

(declare-const |c:benchmark33_linear.i@904@F@main@x?1!0&0#15| (_ BitVec 32))

(declare-const |goto_symex::guard?0!0&0#16| (_ BitVec 1))

(declare-const |c:benchmark33_linear.i@904@F@main@x?1!0&0#16| (_ BitVec 32))

(declare-const |goto_symex::guard?0!0&0#17| (_ BitVec 1))

(declare-const |c:benchmark33_linear.i@904@F@main@x?1!0&0#17| (_ BitVec 32))

(declare-const |goto_symex::guard?0!0&0#18| (_ BitVec 1))

(declare-const |c:benchmark33_linear.i@904@F@main@x?1!0&0#18| (_ BitVec 32))

(declare-const |goto_symex::guard?0!0&0#19| (_ BitVec 1))

(declare-const |c:benchmark33_linear.i@904@F@main@x?1!0&0#19| (_ BitVec 32))

(declare-const |goto_symex::guard?0!0&0#20| (_ BitVec 1))

(declare-const |c:benchmark33_linear.i@904@F@main@x?1!0&0#20| (_ BitVec 32))

(declare-const |goto_symex::guard?0!0&0#21| (_ BitVec 1))

(declare-const |c:benchmark33_linear.i@904@F@main@x?1!0&0#21| (_ BitVec 32))

(declare-const |goto_symex::guard?0!0&0#22| (_ BitVec 1))

(declare-const |c:benchmark33_linear.i@904@F@main@x?1!0&0#22| (_ BitVec 32))

(declare-const |goto_symex::guard?0!0&0#23| (_ BitVec 1))

(declare-const |c:benchmark33_linear.i@904@F@main@x?1!0&0#23| (_ BitVec 32))

(declare-const |goto_symex::guard?0!0&0#24| (_ BitVec 1))

(declare-const |c:benchmark33_linear.i@904@F@main@x?1!0&0#24| (_ BitVec 32))

(declare-const |goto_symex::guard?0!0&0#25| (_ BitVec 1))

(declare-const |c:benchmark33_linear.i@904@F@main@x?1!0&0#26| (_ BitVec 32))

(declare-const |c:benchmark33_linear.i@904@F@main@x?1!0&0#27| (_ BitVec 32))

(declare-const |c:benchmark33_linear.i@904@F@main@x?1!0&0#28| (_ BitVec 32))

(declare-const |c:benchmark33_linear.i@904@F@main@x?1!0&0#29| (_ BitVec 32))

(declare-const |c:benchmark33_linear.i@904@F@main@x?1!0&0#30| (_ BitVec 32))

(declare-const |c:benchmark33_linear.i@904@F@main@x?1!0&0#31| (_ BitVec 32))

(declare-const |c:benchmark33_linear.i@904@F@main@x?1!0&0#32| (_ BitVec 32))

(declare-const |c:benchmark33_linear.i@904@F@main@x?1!0&0#33| (_ BitVec 32))

(declare-const |c:benchmark33_linear.i@904@F@main@x?1!0&0#34| (_ BitVec 32))

(declare-const |c:benchmark33_linear.i@904@F@main@x?1!0&0#35| (_ BitVec 32))

(declare-const |c:benchmark33_linear.i@904@F@main@x?1!0&0#36| (_ BitVec 32))

(declare-const |c:benchmark33_linear.i@904@F@main@x?1!0&0#37| (_ BitVec 32))

(declare-const |c:benchmark33_linear.i@904@F@main@x?1!0&0#38| (_ BitVec 32))

(declare-const |c:benchmark33_linear.i@904@F@main@x?1!0&0#39| (_ BitVec 32))

(declare-const |c:benchmark33_linear.i@904@F@main@x?1!0&0#40| (_ BitVec 32))

(declare-const |c:benchmark33_linear.i@904@F@main@x?1!0&0#41| (_ BitVec 32))

(declare-const |c:benchmark33_linear.i@904@F@main@x?1!0&0#42| (_ BitVec 32))

(declare-const |c:benchmark33_linear.i@904@F@main@x?1!0&0#43| (_ BitVec 32))

(declare-const |c:benchmark33_linear.i@904@F@main@x?1!0&0#44| (_ BitVec 32))

(declare-const |c:benchmark33_linear.i@904@F@main@x?1!0&0#45| (_ BitVec 32))

(declare-const |c:benchmark33_linear.i@904@F@main@x?1!0&0#46| (_ BitVec 32))

(declare-const |c:benchmark33_linear.i@904@F@main@x?1!0&0#47| (_ BitVec 32))

(declare-const |c:benchmark33_linear.i@904@F@main@x?1!0&0#48| (_ BitVec 32))

(declare-const |c:benchmark33_linear.i@904@F@main@x?1!0&0#49| (_ BitVec 32))

(declare-const |c:benchmark33_linear.i@837@F@__VERIFIER_assert@cond?1!0&0#1| (_ BitVec 32))

(declare-const |goto_symex::guard?0!0&0#26| (_ BitVec 1))

(declare-const |execution_statet::guard_exec?0!0| (_ BitVec 1))

(define-fun $e1 () Bool 

 (bvslt |c:benchmark33_linear.i@904@F@main@x?1!0&0#1| #b00000000000000000000000000000000))

(assert 

 (= __ESBMC_ptr_obj_start_0 #b0000000000000000000000000000000000000000000000000000000000000000))

(assert 

 (= #b0000000000000000000000000000000000000000000000000000000000000000 __ESBMC_ptr_obj_end_0))

(assert 

 (= __ESBMC_ptr_obj_start_1 #b0000000000000000000000000000000000000000000000000000000000000001))

(assert 

 (= #b1111111111111111111111111111111111111111111111111111111111111111 __ESBMC_ptr_obj_end_1))

(assert 

 (= __ESBMC_ptr_obj_end_0 |smt_conv::__ESBMC_ptr_addr_range_0..end0|))

(assert 

 (= __ESBMC_ptr_obj_start_0 |smt_conv::__ESBMC_ptr_addr_range_0..start0|))

(assert 

 (= __ESBMC_ptr_obj_end_1 |smt_conv::__ESBMC_ptr_addr_range_1..end0|))

(assert 

 (= __ESBMC_ptr_obj_start_1 |smt_conv::__ESBMC_ptr_addr_range_1..start0|))

(assert 

 (= |smt_conv::smt_conv::collate_array_vals::3..end0| |smt_conv::smt_conv::collate_array_vals::4..end0|))

(assert 

 (= |smt_conv::smt_conv::collate_array_vals::3..start0| |smt_conv::smt_conv::collate_array_vals::4..start0|))

(assert 

 (= __ESBMC_ptr_obj_end_0 |smt_conv::smt_conv::collate_array_vals::7..end0|))

(assert 

 (= __ESBMC_ptr_obj_start_0 |smt_conv::smt_conv::collate_array_vals::7..start0|))

(assert 

 (= |c:@F@main::$tmp::return_value$___VERIFIER_nondet_int$1?1!0&0#1| |nondet$symex::nondet90|))

(assert 

 (= |c:@F@main::$tmp::return_value$___VERIFIER_nondet_int$1?1!0&0#1| |c:benchmark33_linear.i@904@F@main@x?1!0&0#1|))

(assert 

 (= |goto_symex::guard?0!0&0#1| 

  (ite $e1 #b1 #b0)))

(assert 

 (= |goto_symex::guard?0!0&0#2| 

  (ite 

   (and 

    (bvslt |c:benchmark33_linear.i@904@F@main@x?1!0&0#1| #b00000000000000000000000001100100) 

    (not $e1)) #b1 #b0)))

(assert 

 (= |c:benchmark33_linear.i@904@F@main@x?1!0&0#2| 

  (bvadd |c:benchmark33_linear.i@904@F@main@x?1!0&0#1| #b00000000000000000000000000000001)))

(assert 

 (= |goto_symex::guard?0!0&0#3| 

  (ite 

   (and 

    (not 

     (bvslt |c:benchmark33_linear.i@904@F@main@x?1!0&0#2| #b00000000000000000000000000000000)) 

    (bvslt |c:benchmark33_linear.i@904@F@main@x?1!0&0#2| #b00000000000000000000000001100100)) #b1 #b0)))

(assert 

 (= |c:benchmark33_linear.i@904@F@main@x?1!0&0#3| 

  (bvadd |c:benchmark33_linear.i@904@F@main@x?1!0&0#2| #b00000000000000000000000000000001)))

(assert 

 (= |goto_symex::guard?0!0&0#4| 

  (ite 

   (and 

    (not 

     (bvslt |c:benchmark33_linear.i@904@F@main@x?1!0&0#3| #b00000000000000000000000000000000)) 

    (bvslt |c:benchmark33_linear.i@904@F@main@x?1!0&0#3| #b00000000000000000000000001100100)) #b1 #b0)))

(assert 

 (= |c:benchmark33_linear.i@904@F@main@x?1!0&0#4| 

  (bvadd #b00000000000000000000000000000001 |c:benchmark33_linear.i@904@F@main@x?1!0&0#3|)))

(assert 

 (= |goto_symex::guard?0!0&0#5| 

  (ite 

   (and 

    (not 

     (bvslt |c:benchmark33_linear.i@904@F@main@x?1!0&0#4| #b00000000000000000000000000000000)) 

    (bvslt |c:benchmark33_linear.i@904@F@main@x?1!0&0#4| #b00000000000000000000000001100100)) #b1 #b0)))

(assert 

 (= |c:benchmark33_linear.i@904@F@main@x?1!0&0#5| 

  (bvadd #b00000000000000000000000000000001 |c:benchmark33_linear.i@904@F@main@x?1!0&0#4|)))

(assert 

 (= |goto_symex::guard?0!0&0#6| 

  (ite 

   (and 

    (not 

     (bvslt |c:benchmark33_linear.i@904@F@main@x?1!0&0#5| #b00000000000000000000000000000000)) 

    (bvslt |c:benchmark33_linear.i@904@F@main@x?1!0&0#5| #b00000000000000000000000001100100)) #b1 #b0)))

(assert 

 (= |c:benchmark33_linear.i@904@F@main@x?1!0&0#6| 

  (bvadd #b00000000000000000000000000000001 |c:benchmark33_linear.i@904@F@main@x?1!0&0#5|)))

(assert 

 (= |goto_symex::guard?0!0&0#7| 

  (ite 

   (and 

    (not 

     (bvslt |c:benchmark33_linear.i@904@F@main@x?1!0&0#6| #b00000000000000000000000000000000)) 

    (bvslt |c:benchmark33_linear.i@904@F@main@x?1!0&0#6| #b00000000000000000000000001100100)) #b1 #b0)))

(assert 

 (= |c:benchmark33_linear.i@904@F@main@x?1!0&0#7| 

  (bvadd #b00000000000000000000000000000001 |c:benchmark33_linear.i@904@F@main@x?1!0&0#6|)))

(assert 

 (= |goto_symex::guard?0!0&0#8| 

  (ite 

   (and 

    (not 

     (bvslt |c:benchmark33_linear.i@904@F@main@x?1!0&0#7| #b00000000000000000000000000000000)) 

    (bvslt |c:benchmark33_linear.i@904@F@main@x?1!0&0#7| #b00000000000000000000000001100100)) #b1 #b0)))

(assert 

 (= |c:benchmark33_linear.i@904@F@main@x?1!0&0#8| 

  (bvadd #b00000000000000000000000000000001 |c:benchmark33_linear.i@904@F@main@x?1!0&0#7|)))

(assert 

 (= |goto_symex::guard?0!0&0#9| 

  (ite 

   (and 

    (not 

     (bvslt |c:benchmark33_linear.i@904@F@main@x?1!0&0#8| #b00000000000000000000000000000000)) 

    (bvslt |c:benchmark33_linear.i@904@F@main@x?1!0&0#8| #b00000000000000000000000001100100)) #b1 #b0)))

(assert 

 (= |c:benchmark33_linear.i@904@F@main@x?1!0&0#9| 

  (bvadd #b00000000000000000000000000000001 |c:benchmark33_linear.i@904@F@main@x?1!0&0#8|)))

(assert 

 (= |goto_symex::guard?0!0&0#10| 

  (ite 

   (and 

    (not 

     (bvslt |c:benchmark33_linear.i@904@F@main@x?1!0&0#9| #b00000000000000000000000000000000)) 

    (bvslt |c:benchmark33_linear.i@904@F@main@x?1!0&0#9| #b00000000000000000000000001100100)) #b1 #b0)))

(assert 

 (= |c:benchmark33_linear.i@904@F@main@x?1!0&0#10| 

  (bvadd #b00000000000000000000000000000001 |c:benchmark33_linear.i@904@F@main@x?1!0&0#9|)))

(assert 

 (= |goto_symex::guard?0!0&0#11| 

  (ite 

   (and 

    (not 

     (bvslt |c:benchmark33_linear.i@904@F@main@x?1!0&0#10| #b00000000000000000000000000000000)) 

    (bvslt |c:benchmark33_linear.i@904@F@main@x?1!0&0#10| #b00000000000000000000000001100100)) #b1 #b0)))

(assert 

 (= |c:benchmark33_linear.i@904@F@main@x?1!0&0#11| 

  (bvadd #b00000000000000000000000000000001 |c:benchmark33_linear.i@904@F@main@x?1!0&0#10|)))

(assert 

 (= |goto_symex::guard?0!0&0#12| 

  (ite 

   (and 

    (not 

     (bvslt |c:benchmark33_linear.i@904@F@main@x?1!0&0#11| #b00000000000000000000000000000000)) 

    (bvslt |c:benchmark33_linear.i@904@F@main@x?1!0&0#11| #b00000000000000000000000001100100)) #b1 #b0)))

(assert 

 (= |c:benchmark33_linear.i@904@F@main@x?1!0&0#12| 

  (bvadd #b00000000000000000000000000000001 |c:benchmark33_linear.i@904@F@main@x?1!0&0#11|)))

(assert 

 (= |goto_symex::guard?0!0&0#13| 

  (ite 

   (and 

    (not 

     (bvslt |c:benchmark33_linear.i@904@F@main@x?1!0&0#12| #b00000000000000000000000000000000)) 

    (bvslt |c:benchmark33_linear.i@904@F@main@x?1!0&0#12| #b00000000000000000000000001100100)) #b1 #b0)))

(assert 

 (= |c:benchmark33_linear.i@904@F@main@x?1!0&0#13| 

  (bvadd #b00000000000000000000000000000001 |c:benchmark33_linear.i@904@F@main@x?1!0&0#12|)))

(assert 

 (= |goto_symex::guard?0!0&0#14| 

  (ite 

   (and 

    (not 

     (bvslt |c:benchmark33_linear.i@904@F@main@x?1!0&0#13| #b00000000000000000000000000000000)) 

    (bvslt |c:benchmark33_linear.i@904@F@main@x?1!0&0#13| #b00000000000000000000000001100100)) #b1 #b0)))

(assert 

 (= |c:benchmark33_linear.i@904@F@main@x?1!0&0#14| 

  (bvadd #b00000000000000000000000000000001 |c:benchmark33_linear.i@904@F@main@x?1!0&0#13|)))

(assert 

 (= |goto_symex::guard?0!0&0#15| 

  (ite 

   (and 

    (not 

     (bvslt |c:benchmark33_linear.i@904@F@main@x?1!0&0#14| #b00000000000000000000000000000000)) 

    (bvslt |c:benchmark33_linear.i@904@F@main@x?1!0&0#14| #b00000000000000000000000001100100)) #b1 #b0)))

(assert 

 (= |c:benchmark33_linear.i@904@F@main@x?1!0&0#15| 

  (bvadd #b00000000000000000000000000000001 |c:benchmark33_linear.i@904@F@main@x?1!0&0#14|)))

(assert 

 (= |goto_symex::guard?0!0&0#16| 

  (ite 

   (and 

    (not 

     (bvslt |c:benchmark33_linear.i@904@F@main@x?1!0&0#15| #b00000000000000000000000000000000)) 

    (bvslt |c:benchmark33_linear.i@904@F@main@x?1!0&0#15| #b00000000000000000000000001100100)) #b1 #b0)))

(assert 

 (= |c:benchmark33_linear.i@904@F@main@x?1!0&0#16| 

  (bvadd #b00000000000000000000000000000001 |c:benchmark33_linear.i@904@F@main@x?1!0&0#15|)))

(assert 

 (= |goto_symex::guard?0!0&0#17| 

  (ite 

   (and 

    (not 

     (bvslt |c:benchmark33_linear.i@904@F@main@x?1!0&0#16| #b00000000000000000000000000000000)) 

    (bvslt |c:benchmark33_linear.i@904@F@main@x?1!0&0#16| #b00000000000000000000000001100100)) #b1 #b0)))

(assert 

 (= |c:benchmark33_linear.i@904@F@main@x?1!0&0#17| 

  (bvadd #b00000000000000000000000000000001 |c:benchmark33_linear.i@904@F@main@x?1!0&0#16|)))

(assert 

 (= |goto_symex::guard?0!0&0#18| 

  (ite 

   (and 

    (not 

     (bvslt |c:benchmark33_linear.i@904@F@main@x?1!0&0#17| #b00000000000000000000000000000000)) 

    (bvslt |c:benchmark33_linear.i@904@F@main@x?1!0&0#17| #b00000000000000000000000001100100)) #b1 #b0)))

(assert 

 (= |c:benchmark33_linear.i@904@F@main@x?1!0&0#18| 

  (bvadd #b00000000000000000000000000000001 |c:benchmark33_linear.i@904@F@main@x?1!0&0#17|)))

(assert 

 (= |goto_symex::guard?0!0&0#19| 

  (ite 

   (and 

    (not 

     (bvslt |c:benchmark33_linear.i@904@F@main@x?1!0&0#18| #b00000000000000000000000000000000)) 

    (bvslt |c:benchmark33_linear.i@904@F@main@x?1!0&0#18| #b00000000000000000000000001100100)) #b1 #b0)))

(assert 

 (= |c:benchmark33_linear.i@904@F@main@x?1!0&0#19| 

  (bvadd #b00000000000000000000000000000001 |c:benchmark33_linear.i@904@F@main@x?1!0&0#18|)))

(assert 

 (= |goto_symex::guard?0!0&0#20| 

  (ite 

   (and 

    (not 

     (bvslt |c:benchmark33_linear.i@904@F@main@x?1!0&0#19| #b00000000000000000000000000000000)) 

    (bvslt |c:benchmark33_linear.i@904@F@main@x?1!0&0#19| #b00000000000000000000000001100100)) #b1 #b0)))

(assert 

 (= |c:benchmark33_linear.i@904@F@main@x?1!0&0#20| 

  (bvadd #b00000000000000000000000000000001 |c:benchmark33_linear.i@904@F@main@x?1!0&0#19|)))

(assert 

 (= |goto_symex::guard?0!0&0#21| 

  (ite 

   (and 

    (not 

     (bvslt |c:benchmark33_linear.i@904@F@main@x?1!0&0#20| #b00000000000000000000000000000000)) 

    (bvslt |c:benchmark33_linear.i@904@F@main@x?1!0&0#20| #b00000000000000000000000001100100)) #b1 #b0)))

(assert 

 (= |c:benchmark33_linear.i@904@F@main@x?1!0&0#21| 

  (bvadd #b00000000000000000000000000000001 |c:benchmark33_linear.i@904@F@main@x?1!0&0#20|)))

(assert 

 (= |goto_symex::guard?0!0&0#22| 

  (ite 

   (and 

    (not 

     (bvslt |c:benchmark33_linear.i@904@F@main@x?1!0&0#21| #b00000000000000000000000000000000)) 

    (bvslt |c:benchmark33_linear.i@904@F@main@x?1!0&0#21| #b00000000000000000000000001100100)) #b1 #b0)))

(assert 

 (= |c:benchmark33_linear.i@904@F@main@x?1!0&0#22| 

  (bvadd #b00000000000000000000000000000001 |c:benchmark33_linear.i@904@F@main@x?1!0&0#21|)))

(assert 

 (= |goto_symex::guard?0!0&0#23| 

  (ite 

   (and 

    (not 

     (bvslt |c:benchmark33_linear.i@904@F@main@x?1!0&0#22| #b00000000000000000000000000000000)) 

    (bvslt |c:benchmark33_linear.i@904@F@main@x?1!0&0#22| #b00000000000000000000000001100100)) #b1 #b0)))

(assert 

 (= |c:benchmark33_linear.i@904@F@main@x?1!0&0#23| 

  (bvadd #b00000000000000000000000000000001 |c:benchmark33_linear.i@904@F@main@x?1!0&0#22|)))

(assert 

 (= |goto_symex::guard?0!0&0#24| 

  (ite 

   (and 

    (not 

     (bvslt |c:benchmark33_linear.i@904@F@main@x?1!0&0#23| #b00000000000000000000000000000000)) 

    (bvslt |c:benchmark33_linear.i@904@F@main@x?1!0&0#23| #b00000000000000000000000001100100)) #b1 #b0)))

(assert 

 (= |c:benchmark33_linear.i@904@F@main@x?1!0&0#24| 

  (bvadd #b00000000000000000000000000000001 |c:benchmark33_linear.i@904@F@main@x?1!0&0#23|)))

(assert 

 (= |goto_symex::guard?0!0&0#25| 

  (ite 

   (and 

    (not 

     (bvslt |c:benchmark33_linear.i@904@F@main@x?1!0&0#24| #b00000000000000000000000000000000)) 

    (bvslt |c:benchmark33_linear.i@904@F@main@x?1!0&0#24| #b00000000000000000000000001100100)) #b1 #b0)))

(assert 

 (= |c:benchmark33_linear.i@904@F@main@x?1!0&0#24| |c:benchmark33_linear.i@904@F@main@x?1!0&0#26|))

(assert 

 (= |c:benchmark33_linear.i@904@F@main@x?1!0&0#27| 

  (ite 

   (= #b1 |goto_symex::guard?0!0&0#24|) |c:benchmark33_linear.i@904@F@main@x?1!0&0#26| |c:benchmark33_linear.i@904@F@main@x?1!0&0#23|)))

(assert 

 (= |c:benchmark33_linear.i@904@F@main@x?1!0&0#28| 

  (ite 

   (= #b1 |goto_symex::guard?0!0&0#23|) |c:benchmark33_linear.i@904@F@main@x?1!0&0#27| |c:benchmark33_linear.i@904@F@main@x?1!0&0#22|)))

(assert 

 (= |c:benchmark33_linear.i@904@F@main@x?1!0&0#29| 

  (ite 

   (= #b1 |goto_symex::guard?0!0&0#22|) |c:benchmark33_linear.i@904@F@main@x?1!0&0#28| |c:benchmark33_linear.i@904@F@main@x?1!0&0#21|)))

(assert 

 (= |c:benchmark33_linear.i@904@F@main@x?1!0&0#30| 

  (ite 

   (= #b1 |goto_symex::guard?0!0&0#21|) |c:benchmark33_linear.i@904@F@main@x?1!0&0#29| |c:benchmark33_linear.i@904@F@main@x?1!0&0#20|)))

(assert 

 (= |c:benchmark33_linear.i@904@F@main@x?1!0&0#31| 

  (ite 

   (= #b1 |goto_symex::guard?0!0&0#20|) |c:benchmark33_linear.i@904@F@main@x?1!0&0#30| |c:benchmark33_linear.i@904@F@main@x?1!0&0#19|)))

(assert 

 (= |c:benchmark33_linear.i@904@F@main@x?1!0&0#32| 

  (ite 

   (= #b1 |goto_symex::guard?0!0&0#19|) |c:benchmark33_linear.i@904@F@main@x?1!0&0#31| |c:benchmark33_linear.i@904@F@main@x?1!0&0#18|)))

(assert 

 (= |c:benchmark33_linear.i@904@F@main@x?1!0&0#33| 

  (ite 

   (= #b1 |goto_symex::guard?0!0&0#18|) |c:benchmark33_linear.i@904@F@main@x?1!0&0#32| |c:benchmark33_linear.i@904@F@main@x?1!0&0#17|)))

(assert 

 (= |c:benchmark33_linear.i@904@F@main@x?1!0&0#34| 

  (ite 

   (= #b1 |goto_symex::guard?0!0&0#17|) |c:benchmark33_linear.i@904@F@main@x?1!0&0#33| |c:benchmark33_linear.i@904@F@main@x?1!0&0#16|)))

(assert 

 (= |c:benchmark33_linear.i@904@F@main@x?1!0&0#35| 

  (ite 

   (= #b1 |goto_symex::guard?0!0&0#16|) |c:benchmark33_linear.i@904@F@main@x?1!0&0#34| |c:benchmark33_linear.i@904@F@main@x?1!0&0#15|)))

(assert 

 (= |c:benchmark33_linear.i@904@F@main@x?1!0&0#36| 

  (ite 

   (= #b1 |goto_symex::guard?0!0&0#15|) |c:benchmark33_linear.i@904@F@main@x?1!0&0#35| |c:benchmark33_linear.i@904@F@main@x?1!0&0#14|)))

(assert 

 (= |c:benchmark33_linear.i@904@F@main@x?1!0&0#37| 

  (ite 

   (= #b1 |goto_symex::guard?0!0&0#14|) |c:benchmark33_linear.i@904@F@main@x?1!0&0#36| |c:benchmark33_linear.i@904@F@main@x?1!0&0#13|)))

(assert 

 (= |c:benchmark33_linear.i@904@F@main@x?1!0&0#38| 

  (ite 

   (= #b1 |goto_symex::guard?0!0&0#13|) |c:benchmark33_linear.i@904@F@main@x?1!0&0#37| |c:benchmark33_linear.i@904@F@main@x?1!0&0#12|)))

(assert 

 (= |c:benchmark33_linear.i@904@F@main@x?1!0&0#39| 

  (ite 

   (= #b1 |goto_symex::guard?0!0&0#12|) |c:benchmark33_linear.i@904@F@main@x?1!0&0#38| |c:benchmark33_linear.i@904@F@main@x?1!0&0#11|)))

(assert 

 (= |c:benchmark33_linear.i@904@F@main@x?1!0&0#40| 

  (ite 

   (= #b1 |goto_symex::guard?0!0&0#11|) |c:benchmark33_linear.i@904@F@main@x?1!0&0#39| |c:benchmark33_linear.i@904@F@main@x?1!0&0#10|)))

(assert 

 (= |c:benchmark33_linear.i@904@F@main@x?1!0&0#41| 

  (ite 

   (= #b1 |goto_symex::guard?0!0&0#10|) |c:benchmark33_linear.i@904@F@main@x?1!0&0#40| |c:benchmark33_linear.i@904@F@main@x?1!0&0#9|)))

(assert 

 (= |c:benchmark33_linear.i@904@F@main@x?1!0&0#42| 

  (ite 

   (= #b1 |goto_symex::guard?0!0&0#9|) |c:benchmark33_linear.i@904@F@main@x?1!0&0#41| |c:benchmark33_linear.i@904@F@main@x?1!0&0#8|)))

(assert 

 (= |c:benchmark33_linear.i@904@F@main@x?1!0&0#43| 

  (ite 

   (= #b1 |goto_symex::guard?0!0&0#8|) |c:benchmark33_linear.i@904@F@main@x?1!0&0#42| |c:benchmark33_linear.i@904@F@main@x?1!0&0#7|)))

(assert 

 (= |c:benchmark33_linear.i@904@F@main@x?1!0&0#44| 

  (ite 

   (= #b1 |goto_symex::guard?0!0&0#7|) |c:benchmark33_linear.i@904@F@main@x?1!0&0#43| |c:benchmark33_linear.i@904@F@main@x?1!0&0#6|)))

(assert 

 (= |c:benchmark33_linear.i@904@F@main@x?1!0&0#45| 

  (ite 

   (= #b1 |goto_symex::guard?0!0&0#6|) |c:benchmark33_linear.i@904@F@main@x?1!0&0#44| |c:benchmark33_linear.i@904@F@main@x?1!0&0#5|)))

(assert 

 (= |c:benchmark33_linear.i@904@F@main@x?1!0&0#46| 

  (ite 

   (= #b1 |goto_symex::guard?0!0&0#5|) |c:benchmark33_linear.i@904@F@main@x?1!0&0#45| |c:benchmark33_linear.i@904@F@main@x?1!0&0#4|)))

(assert 

 (= |c:benchmark33_linear.i@904@F@main@x?1!0&0#47| 

  (ite 

   (= #b1 |goto_symex::guard?0!0&0#4|) |c:benchmark33_linear.i@904@F@main@x?1!0&0#46| |c:benchmark33_linear.i@904@F@main@x?1!0&0#3|)))

(assert 

 (= |c:benchmark33_linear.i@904@F@main@x?1!0&0#48| 

  (ite 

   (= #b1 |goto_symex::guard?0!0&0#3|) |c:benchmark33_linear.i@904@F@main@x?1!0&0#47| |c:benchmark33_linear.i@904@F@main@x?1!0&0#2|)))

(assert 

 (= |c:benchmark33_linear.i@904@F@main@x?1!0&0#49| 

  (ite 

   (= #b1 |goto_symex::guard?0!0&0#2|) |c:benchmark33_linear.i@904@F@main@x?1!0&0#48| |c:benchmark33_linear.i@904@F@main@x?1!0&0#1|)))

(assert 

 (= |c:benchmark33_linear.i@837@F@__VERIFIER_assert@cond?1!0&0#1| 

  (ite 

   (bvslt |c:benchmark33_linear.i@904@F@main@x?1!0&0#49| #b00000000000000000000000001100100) #b00000000000000000000000000000000 #b00000000000000000000000000000001)))

(assert 

 (= |goto_symex::guard?0!0&0#26| 

  (ite 

   (= #b00000000000000000000000000000000 |c:benchmark33_linear.i@837@F@__VERIFIER_assert@cond?1!0&0#1|) #b1 #b0)))

(assert (= 

 (bvnot 

  (bvand 

   (bvand 

    (bvand 

     (bvand 

      (bvand 

       (bvand 

        (bvand 

         (bvand 

          (bvand 

           (bvand 

            (bvand 

             (bvand 

              (bvand 

               (bvand 

                (bvand 

                 (bvand 

                  (bvand 

                   (bvand 

                    (bvand 

                     (bvand 

                      (bvand 

                       (bvand 

                        (bvand 

                         (bvand 

                          (bvnot |goto_symex::guard?0!0&0#1|) |goto_symex::guard?0!0&0#2|) |goto_symex::guard?0!0&0#3|) |goto_symex::guard?0!0&0#4|) |goto_symex::guard?0!0&0#5|) |goto_symex::guard?0!0&0#6|) |goto_symex::guard?0!0&0#7|) |goto_symex::guard?0!0&0#8|) |goto_symex::guard?0!0&0#9|) |goto_symex::guard?0!0&0#10|) |goto_symex::guard?0!0&0#11|) |goto_symex::guard?0!0&0#12|) |goto_symex::guard?0!0&0#13|) |goto_symex::guard?0!0&0#14|) |goto_symex::guard?0!0&0#15|) |goto_symex::guard?0!0&0#16|) |goto_symex::guard?0!0&0#17|) |goto_symex::guard?0!0&0#18|) |goto_symex::guard?0!0&0#19|) |goto_symex::guard?0!0&0#20|) |goto_symex::guard?0!0&0#21|) |goto_symex::guard?0!0&0#22|) |goto_symex::guard?0!0&0#23|) |goto_symex::guard?0!0&0#24|) |goto_symex::guard?0!0&0#25|)) #b1))

(assert (= |execution_statet::guard_exec?0!0| #b1))

(assert (= |goto_symex::guard?0!0&0#26| #b1))

(assert (= 

 (bvnot 

  (bvand |goto_symex::guard?0!0&0#2| 

   (bvand |goto_symex::guard?0!0&0#3| 

    (bvand |goto_symex::guard?0!0&0#4| 

     (bvand |goto_symex::guard?0!0&0#5| 

      (bvand |goto_symex::guard?0!0&0#6| 

       (bvand |goto_symex::guard?0!0&0#7| 

        (bvand |goto_symex::guard?0!0&0#8| 

         (bvand |goto_symex::guard?0!0&0#9| 

          (bvand |goto_symex::guard?0!0&0#10| 

           (bvand |goto_symex::guard?0!0&0#11| 

            (bvand |goto_symex::guard?0!0&0#12| 

             (bvand |goto_symex::guard?0!0&0#13| 

              (bvand |goto_symex::guard?0!0&0#14| 

               (bvand |goto_symex::guard?0!0&0#15| 

                (bvand |goto_symex::guard?0!0&0#16| 

                 (bvand |goto_symex::guard?0!0&0#17| 

                  (bvand |goto_symex::guard?0!0&0#18| 

                   (bvand |goto_symex::guard?0!0&0#19| 

                    (bvand |goto_symex::guard?0!0&0#20| 

                     (bvand |goto_symex::guard?0!0&0#21| 

                      (bvand |goto_symex::guard?0!0&0#22| 

                       (bvand |goto_symex::guard?0!0&0#23| 

                        (bvand |goto_symex::guard?0!0&0#24| |goto_symex::guard?0!0&0#25|)))))))))))))))))))))))) #b1))

(assert (= 

 (bvnot |goto_symex::guard?0!0&0#1|) #b1))

(check-sat)

(exit)
